NAME 
ROWS
 N  OBJ
 L  R0      
 L  R1      
 L  R2      
 E  R3      
 E  R4      
 E  R5      
 E  R6      
 E  R7      
 E  R8      
 E  R9      
 E  R10     
 E  R11     
 E  R12     
 E  R13     
 E  R14     
 E  R15     
 E  R16     
 E  R17     
 E  R18     
 E  R19     
 E  R20     
 E  R21     
 E  R22     
COLUMNS
    MARKER    'MARKER'                 'INTORG'
    I0(9)     OBJ       -196
    I0(9)     R0        197
    I0(9)     R1        135
    I0(9)     R2        189
    I0(9)     R4        4
    I0(9)     R5        10
    I0(9)     R6        19
    I0(9)     R7        10
    I0(9)     R9        4
    I0(9)     R22       1
    I1(11)    OBJ       -33
    I1(11)    R0        -113
    I1(11)    R1        -156
    I1(11)    R2        10
    I1(11)    R3        3
    I1(11)    R4        6
    I1(11)    R5        14
    I1(11)    R6        11
    I1(11)    R7        8
    I1(11)    R8        5
    I1(11)    R10       6
    I1(11)    R22       1
    I2(9)     OBJ       -1
    I2(9)     R0        -166
    I2(9)     R1        105
    I2(9)     R2        6
    I2(9)     R4        8
    I2(9)     R5        9
    I2(9)     R6        7
    I2(9)     R7        16
    I2(9)     R10       18
    I2(9)     R22       1
    I3(9)     OBJ       38
    I3(9)     R0        15
    I3(9)     R1        167
    I3(9)     R2        187
    I3(9)     R4        4
    I3(9)     R5        13
    I3(9)     R6        11
    I3(9)     R7        10
    I3(9)     R9        5
    I3(9)     R22       1
    I4(9)     OBJ       -9
    I4(9)     R0        -21
    I4(9)     R1        17
    I4(9)     R2        98
    I4(9)     R4        12
    I4(9)     R5        18
    I4(9)     R6        3
    I4(9)     R8        5
    I4(9)     R9        16
    I4(9)     R22       1
    I5(10)    OBJ       -173
    I5(10)    R0        11
    I5(10)    R1        149
    I5(10)    R2        -84
    I5(10)    R4        17
    I5(10)    R5        16
    I5(10)    R6        1
    I5(10)    R8        1
    I5(10)    R9        8
    I5(10)    R10       19
    I5(10)    R22       1
    I6(12)    OBJ       -131
    I6(12)    R0        183
    I6(12)    R1        50
    I6(12)    R2        -7
    I6(12)    R3        17
    I6(12)    R4        7
    I6(12)    R5        18
    I6(12)    R6        5
    I6(12)    R7        8
    I6(12)    R8        4
    I6(12)    R9        19
    I6(12)    R10       13
    I6(12)    R22       1
    I7(10)    OBJ       -37
    I7(10)    R0        -78
    I7(10)    R1        169
    I7(10)    R2        176
    I7(10)    R3        18
    I7(10)    R4        1
    I7(10)    R5        18
    I7(10)    R6        15
    I7(10)    R7        15
    I7(10)    R9        10
    I7(10)    R22       1
    MARKER    'MARKER'                 'INTEND'
    C8(17)    R1        -9
    C8(17)    R2        -10
    C8(17)    R4        18
    C8(17)    R5        14
    C8(17)    R7        5
    C8(17)    R8        12
    C8(17)    R9        2
    C8(17)    R10       1
    C8(17)    R12       18
    C8(17)    R13       6
    C8(17)    R14       8
    C8(17)    R15       17
    C8(17)    R17       13
    C8(17)    R18       8
    C8(17)    R19       1
    C8(17)    R20       11
    C8(17)    R21       8
    C9(16)    OBJ       -1
    C9(16)    R0        -9
    C9(16)    R1        -1
    C9(16)    R2        -7
    C9(16)    R4        12
    C9(16)    R5        2
    C9(16)    R6        9
    C9(16)    R7        5
    C9(16)    R8        18
    C9(16)    R10       2
    C9(16)    R11       10
    C9(16)    R12       15
    C9(16)    R13       6
    C9(16)    R14       9
    C9(16)    R18       17
    C9(16)    R20       3
    C9(16)    R21       16
    C10(16)   OBJ       2
    C10(16)   R0        -7
    C10(16)   R1        -4
    C10(16)   R2        -4
    C10(16)   R4        -1
    C10(16)   R5        -1
    C10(16)   R6        13
    C10(16)   R10       6
    C10(16)   R11       10
    C10(16)   R12       7
    C10(16)   R13       3
    C10(16)   R15       19
    C10(16)   R16       19
    C10(16)   R17       9
    C10(16)   R18       4
    C10(16)   R20       9
    C10(16)   R21       18
    C11(15)   OBJ       -4
    C11(15)   R0        5
    C11(15)   R1        -3
    C11(15)   R2        -10
    C11(15)   R3        3
    C11(15)   R6        11
    C11(15)   R7        1
    C11(15)   R8        3
    C11(15)   R9        19
    C11(15)   R10       13
    C11(15)   R12       15
    C11(15)   R14       18
    C11(15)   R16       14
    C11(15)   R17       15
    C11(15)   R18       9
    C11(15)   R21       14
    C12(11)   OBJ       -8
    C12(11)   R0        -4
    C12(11)   R1        -2
    C12(11)   R2        -3
    C12(11)   R4        19
    C12(11)   R8        13
    C12(11)   R12       11
    C12(11)   R13       19
    C12(11)   R15       18
    C12(11)   R16       9
    C12(11)   R19       10
    C12(11)   R20       7
    C13(16)   OBJ       4
    C13(16)   R0        2
    C13(16)   R1        6
    C13(16)   R2        4
    C13(16)   R4        8
    C13(16)   R5        -1
    C13(16)   R6        3
    C13(16)   R7        13
    C13(16)   R9        12
    C13(16)   R11       17
    C13(16)   R12       3
    C13(16)   R15       -1
    C13(16)   R16       14
    C13(16)   R18       9
    C13(16)   R19       9
    C13(16)   R20       19
    C13(16)   R21       10
    C14(13)   OBJ       -10
    C14(13)   R0        7
    C14(13)   R1        -1
    C14(13)   R2        6
    C14(13)   R7        12
    C14(13)   R9        5
    C14(13)   R10       5
    C14(13)   R11       16
    C14(13)   R13       2
    C14(13)   R14       2
    C14(13)   R15       17
    C14(13)   R18       1
    C14(13)   R19       16
    C14(13)   R21       3
    C15(17)   OBJ       -7
    C15(17)   R0        -4
    C15(17)   R1        -1
    C15(17)   R2        -7
    C15(17)   R4        8
    C15(17)   R5        8
    C15(17)   R7        7
    C15(17)   R8        11
    C15(17)   R9        19
    C15(17)   R10       5
    C15(17)   R11       14
    C15(17)   R13       5
    C15(17)   R14       13
    C15(17)   R15       2
    C15(17)   R17       6
    C15(17)   R18       -1
    C15(17)   R19       3
    C15(17)   R20       7
    C16(14)   OBJ       -6
    C16(14)   R0        -10
    C16(14)   R1        -5
    C16(14)   R2        3
    C16(14)   R3        16
    C16(14)   R4        18
    C16(14)   R7        2
    C16(14)   R8        5
    C16(14)   R10       10
    C16(14)   R11       16
    C16(14)   R15       5
    C16(14)   R16       1
    C16(14)   R17       8
    C16(14)   R18       14
    C16(14)   R20       6
    C17(13)   OBJ       -7
    C17(13)   R0        3
    C17(13)   R1        -8
    C17(13)   R2        -4
    C17(13)   R3        15
    C17(13)   R6        9
    C17(13)   R7        17
    C17(13)   R9        3
    C17(13)   R11       15
    C17(13)   R12       17
    C17(13)   R15       14
    C17(13)   R16       9
    C17(13)   R18       14
    C17(13)   R20       3
    C18(16)   OBJ       3
    C18(16)   R0        2
    C18(16)   R1        -10
    C18(16)   R2        -10
    C18(16)   R4        2
    C18(16)   R5        3
    C18(16)   R6        2
    C18(16)   R7        14
    C18(16)   R8        9
    C18(16)   R9        9
    C18(16)   R10       -1
    C18(16)   R11       7
    C18(16)   R14       12
    C18(16)   R15       3
    C18(16)   R17       16
    C18(16)   R18       15
    C18(16)   R20       8
    C19(16)   OBJ       -10
    C19(16)   R0        -5
    C19(16)   R1        9
    C19(16)   R2        2
    C19(16)   R3        19
    C19(16)   R4        12
    C19(16)   R5        11
    C19(16)   R6        12
    C19(16)   R7        19
    C19(16)   R10       15
    C19(16)   R11       2
    C19(16)   R12       5
    C19(16)   R14       3
    C19(16)   R15       10
    C19(16)   R16       18
    C19(16)   R17       11
    C19(16)   R20       9
    C20(1)    R3        1
    C21(1)    R4        1
    C22(1)    R5        1
    C23(1)    R6        1
    C24(1)    R7        1
    C25(1)    R8        1
    C26(1)    R9        1
    C27(1)    R10       1
    C28(1)    R11       1
    C29(1)    R12       1
    C30(1)    R13       1
    C31(1)    R14       1
    C32(1)    R15       1
    C33(1)    R16       1
    C34(1)    R17       1
    C35(1)    R18       1
    C36(1)    R19       1
    C37(1)    R20       1
    C38(1)    R21       1
    C39(1)    R22       1
RHS
    RHS1      R0        211.406619330174
    RHS1      R1        2.7986448747062826e+02
    RHS1      R2        9.8867852478623931e+01
    RHS1      R3        77
    RHS1      R4        78
    RHS1      R5        54
    RHS1      R6        77
    RHS1      R7        70
    RHS1      R8        71
    RHS1      R9        71
    RHS1      R10       78
    RHS1      R11       67
    RHS1      R12       66
    RHS1      R13       50
    RHS1      R14       90
    RHS1      R15       81
    RHS1      R16       98
    RHS1      R17       79
    RHS1      R18       99
    RHS1      R19       93
    RHS1      R20       74
    RHS1      R21       78
    RHS1      R22       2
BOUNDS
 UP BND1      I0(9)     1
 UP BND1      I1(11)    1
 UP BND1      I2(9)     1
 UP BND1      I3(9)     1
 UP BND1      I4(9)     1
 UP BND1      I5(10)    1
 UP BND1      I6(12)    1
 UP BND1      I7(10)    1
ENDATA
